65 -1 7 35 19 38 57 11 23 18 -6 2 10 26 46 63 25 -24 36 21 4 60 15 3 29 39 14 27 -32 58 40 8 65 33 -41 17 20 53 54 52 -42 5 9 12 49 -45 31 13 56 22 43 34 51 -47 59 44 64 30 55 -50 28 16 62 48 37 61 0

